;; translated from ./lustre/switch.vmt
;; original benchmark available at: https://es-static.fbk.eu/people/griggio/ic3ia/index.html
;; author: Alberto Griggio <griggio@fbk.eu>
(set-logic HORN)
(declare-fun state (Bool Bool Bool Bool Bool Bool Bool Bool Bool Bool Bool Bool Bool Bool Bool) Bool)
(assert (forall ((|call__SWITCH_.xite2__AT0| Bool) (|param_set__AT0| Bool) (|xite__AT0| Bool) (|param_initial__AT1| Bool) (|call__SWITCH_.level__AT0| Bool) (|_OK___AT0| Bool) (|call__SWITCH1_.level__AT0| Bool) (|call__SWITCH1_.xite2__AT0| Bool) (|call__SWITCH_.xite__AT1| Bool) (|param_treset__AT1| Bool) (|call__SWITCH1_.xite__AT1| Bool) (|call__SWITCH_.xite2__AT1| Bool) (|param_set__AT1| Bool) (|call__SWITCH_.flby__AT1| Bool) (|call__SWITCH1_.xite2__AT1| Bool) (|call__SWITCH1_.flby__AT1| Bool) (|level__AT1| Bool) (|level1__AT1| Bool) (|xite__AT1| Bool) (|call__SWITCH_.level__AT1| Bool) (|_OK___AT1| Bool) (|call__SWITCH1_.level__AT1| Bool) (|call__SWITCH1_.xite__AT0| Bool) (|param_treset__AT0| Bool) (|call__SWITCH_.xite__AT0| Bool) (|param_initial__AT0| Bool) (|call__SWITCH_.flby__AT0| Bool) (|call__SWITCH1_.flby__AT0| Bool) (|level__AT0| Bool) (|level1__AT0| Bool)) (=> (let ((.def_51 (not call__SWITCH1_.xite__AT0)))
(let ((.def_49 (not param_treset__AT0)))
(let ((.def_52 (or .def_49 .def_51)))
(let ((.def_48 (not call__SWITCH_.xite__AT0)))
(let ((.def_50 (or .def_48 .def_49)))
(let ((.def_53 (and .def_50 .def_52)))
(let ((.def_46 (= call__SWITCH_.flby__AT0 param_initial__AT0)))
(let ((.def_54 (and .def_46 .def_53)))
(let ((.def_45 (= call__SWITCH1_.flby__AT0 param_initial__AT0)))
(let ((.def_55 (and .def_45 .def_54)))
(let ((.def_34 (= level1__AT0 level__AT0)))
(let ((.def_35 (= xite__AT0 .def_34)))
(let ((.def_24 (and param_set__AT0 param_treset__AT0)))
(let ((.def_36 (or .def_24 .def_35)))
(let ((.def_33 (= call__SWITCH_.level__AT0 level__AT0)))
(let ((.def_37 (and .def_33 .def_36)))
(let ((.def_31 (= xite__AT0 _OK___AT0)))
(let ((.def_38 (and .def_31 .def_37)))
(let ((.def_29 (= call__SWITCH1_.level__AT0 level1__AT0)))
(let ((.def_39 (and .def_29 .def_38)))
(let ((.def_25 (not .def_24)))
(let ((.def_27 (or .def_25 xite__AT0)))
(let ((.def_40 (and .def_27 .def_39)))
(let ((.def_20 (= call__SWITCH1_.xite2__AT0 call__SWITCH1_.xite__AT0)))
(let ((.def_21 (or param_set__AT0 .def_20)))
(let ((.def_16 (not param_set__AT0)))
(let ((.def_18 (or .def_16 call__SWITCH1_.xite2__AT0)))
(let ((.def_22 (and .def_18 .def_21)))
(let ((.def_41 (and .def_22 .def_40)))
(let ((.def_14 (= call__SWITCH_.flby__AT0 call__SWITCH_.level__AT0)))
(let ((.def_42 (and .def_14 .def_41)))
(let ((.def_11 (= call__SWITCH1_.flby__AT0 call__SWITCH1_.level__AT0)))
(let ((.def_43 (and .def_11 .def_42)))
(let ((.def_56 (and .def_43 .def_55)))
.def_56)))))))))))))))))))))))))))))))))) (state |call__SWITCH1_.flby__AT0| |call__SWITCH1_.level__AT0| |call__SWITCH_.flby__AT0| |call__SWITCH_.level__AT0| |param_set__AT0| |call__SWITCH1_.xite2__AT0| |call__SWITCH1_.xite__AT0| |param_treset__AT0| |xite__AT0| |level1__AT0| |_OK___AT0| |level__AT0| |param_initial__AT0| |call__SWITCH_.xite__AT0| |call__SWITCH_.xite2__AT0|))))
(assert (forall ((|call__SWITCH_.xite2__AT0| Bool) (|param_set__AT0| Bool) (|xite__AT0| Bool) (|param_initial__AT1| Bool) (|call__SWITCH_.level__AT0| Bool) (|_OK___AT0| Bool) (|call__SWITCH1_.level__AT0| Bool) (|call__SWITCH1_.xite2__AT0| Bool) (|call__SWITCH_.xite__AT1| Bool) (|param_treset__AT1| Bool) (|call__SWITCH1_.xite__AT1| Bool) (|call__SWITCH_.xite2__AT1| Bool) (|param_set__AT1| Bool) (|call__SWITCH_.flby__AT1| Bool) (|call__SWITCH1_.xite2__AT1| Bool) (|call__SWITCH1_.flby__AT1| Bool) (|level__AT1| Bool) (|level1__AT1| Bool) (|xite__AT1| Bool) (|call__SWITCH_.level__AT1| Bool) (|_OK___AT1| Bool) (|call__SWITCH1_.level__AT1| Bool) (|call__SWITCH1_.xite__AT0| Bool) (|param_treset__AT0| Bool) (|call__SWITCH_.xite__AT0| Bool) (|param_initial__AT0| Bool) (|call__SWITCH_.flby__AT0| Bool) (|call__SWITCH1_.flby__AT0| Bool) (|level__AT0| Bool) (|level1__AT0| Bool)) (=> (and (state |call__SWITCH1_.flby__AT0| |call__SWITCH1_.level__AT0| |call__SWITCH_.flby__AT0| |call__SWITCH_.level__AT0| |param_set__AT0| |call__SWITCH1_.xite2__AT0| |call__SWITCH1_.xite__AT0| |param_treset__AT0| |xite__AT0| |level1__AT0| |_OK___AT0| |level__AT0| |param_initial__AT0| |call__SWITCH_.xite__AT0| |call__SWITCH_.xite2__AT0|) (let ((.def_111 (= call__SWITCH_.level__AT0 call__SWITCH_.xite__AT1)))
(let ((.def_112 (or param_treset__AT1 .def_111)))
(let ((.def_109 (not call__SWITCH_.xite__AT1)))
(let ((.def_107 (not param_treset__AT1)))
(let ((.def_110 (or .def_107 .def_109)))
(let ((.def_113 (and .def_110 .def_112)))
(let ((.def_106 (not call__SWITCH1_.xite__AT1)))
(let ((.def_108 (or .def_106 .def_107)))
(let ((.def_114 (and .def_108 .def_113)))
(let ((.def_104 (= call__SWITCH1_.level__AT0 call__SWITCH1_.xite__AT1)))
(let ((.def_105 (or param_treset__AT1 .def_104)))
(let ((.def_115 (and .def_105 .def_114)))
(let ((.def_101 (= call__SWITCH_.xite2__AT1 call__SWITCH_.xite__AT1)))
(let ((.def_96 (not call__SWITCH_.level__AT0)))
(let ((.def_97 (and param_set__AT1 .def_96)))
(let ((.def_102 (or .def_97 .def_101)))
(let ((.def_98 (not .def_97)))
(let ((.def_99 (or call__SWITCH_.xite2__AT1 .def_98)))
(let ((.def_103 (and .def_99 .def_102)))
(let ((.def_116 (and .def_103 .def_115)))
(let ((.def_95 (= call__SWITCH_.flby__AT1 call__SWITCH_.xite2__AT1)))
(let ((.def_117 (and .def_95 .def_116)))
(let ((.def_93 (= call__SWITCH1_.flby__AT1 call__SWITCH1_.xite2__AT1)))
(let ((.def_118 (and .def_93 .def_117)))
(let ((.def_82 (= level1__AT1 level__AT1)))
(let ((.def_83 (= xite__AT1 .def_82)))
(let ((.def_72 (and param_set__AT1 param_treset__AT1)))
(let ((.def_84 (or .def_72 .def_83)))
(let ((.def_81 (= call__SWITCH_.level__AT1 level__AT1)))
(let ((.def_85 (and .def_81 .def_84)))
(let ((.def_79 (= xite__AT1 _OK___AT1)))
(let ((.def_86 (and .def_79 .def_85)))
(let ((.def_77 (= call__SWITCH1_.level__AT1 level1__AT1)))
(let ((.def_87 (and .def_77 .def_86)))
(let ((.def_73 (not .def_72)))
(let ((.def_75 (or .def_73 xite__AT1)))
(let ((.def_88 (and .def_75 .def_87)))
(let ((.def_68 (= call__SWITCH1_.xite2__AT1 call__SWITCH1_.xite__AT1)))
(let ((.def_69 (or param_set__AT1 .def_68)))
(let ((.def_64 (not param_set__AT1)))
(let ((.def_66 (or .def_64 call__SWITCH1_.xite2__AT1)))
(let ((.def_70 (and .def_66 .def_69)))
(let ((.def_89 (and .def_70 .def_88)))
(let ((.def_62 (= call__SWITCH_.level__AT1 call__SWITCH_.flby__AT1)))
(let ((.def_90 (and .def_62 .def_89)))
(let ((.def_59 (= call__SWITCH1_.level__AT1 call__SWITCH1_.flby__AT1)))
(let ((.def_91 (and .def_59 .def_90)))
(let ((.def_34 (= level1__AT0 level__AT0)))
(let ((.def_35 (= xite__AT0 .def_34)))
(let ((.def_24 (and param_set__AT0 param_treset__AT0)))
(let ((.def_36 (or .def_24 .def_35)))
(let ((.def_33 (= call__SWITCH_.level__AT0 level__AT0)))
(let ((.def_37 (and .def_33 .def_36)))
(let ((.def_31 (= xite__AT0 _OK___AT0)))
(let ((.def_38 (and .def_31 .def_37)))
(let ((.def_29 (= call__SWITCH1_.level__AT0 level1__AT0)))
(let ((.def_39 (and .def_29 .def_38)))
(let ((.def_25 (not .def_24)))
(let ((.def_27 (or .def_25 xite__AT0)))
(let ((.def_40 (and .def_27 .def_39)))
(let ((.def_20 (= call__SWITCH1_.xite2__AT0 call__SWITCH1_.xite__AT0)))
(let ((.def_21 (or param_set__AT0 .def_20)))
(let ((.def_16 (not param_set__AT0)))
(let ((.def_18 (or .def_16 call__SWITCH1_.xite2__AT0)))
(let ((.def_22 (and .def_18 .def_21)))
(let ((.def_41 (and .def_22 .def_40)))
(let ((.def_14 (= call__SWITCH_.flby__AT0 call__SWITCH_.level__AT0)))
(let ((.def_42 (and .def_14 .def_41)))
(let ((.def_11 (= call__SWITCH1_.flby__AT0 call__SWITCH1_.level__AT0)))
(let ((.def_43 (and .def_11 .def_42)))
(let ((.def_92 (and .def_43 .def_91)))
(let ((.def_119 (and .def_92 .def_118)))
.def_119))))))))))))))))))))))))))))))))))))))))))))))))))))))))))))))))))))))))) (state |call__SWITCH1_.flby__AT1| |call__SWITCH1_.level__AT1| |call__SWITCH_.flby__AT1| |call__SWITCH_.level__AT1| |param_set__AT1| |call__SWITCH1_.xite2__AT1| |call__SWITCH1_.xite__AT1| |param_treset__AT1| |xite__AT1| |level1__AT1| |_OK___AT1| |level__AT1| |param_initial__AT1| |call__SWITCH_.xite__AT1| |call__SWITCH_.xite2__AT1|))))
(assert (forall ((|call__SWITCH_.xite2__AT0| Bool) (|param_set__AT0| Bool) (|xite__AT0| Bool) (|param_initial__AT1| Bool) (|call__SWITCH_.level__AT0| Bool) (|_OK___AT0| Bool) (|call__SWITCH1_.level__AT0| Bool) (|call__SWITCH1_.xite2__AT0| Bool) (|call__SWITCH_.xite__AT1| Bool) (|param_treset__AT1| Bool) (|call__SWITCH1_.xite__AT1| Bool) (|call__SWITCH_.xite2__AT1| Bool) (|param_set__AT1| Bool) (|call__SWITCH_.flby__AT1| Bool) (|call__SWITCH1_.xite2__AT1| Bool) (|call__SWITCH1_.flby__AT1| Bool) (|level__AT1| Bool) (|level1__AT1| Bool) (|xite__AT1| Bool) (|call__SWITCH_.level__AT1| Bool) (|_OK___AT1| Bool) (|call__SWITCH1_.level__AT1| Bool) (|call__SWITCH1_.xite__AT0| Bool) (|param_treset__AT0| Bool) (|call__SWITCH_.xite__AT0| Bool) (|param_initial__AT0| Bool) (|call__SWITCH_.flby__AT0| Bool) (|call__SWITCH1_.flby__AT0| Bool) (|level__AT0| Bool) (|level1__AT0| Bool)) (=> (state |call__SWITCH1_.flby__AT0| |call__SWITCH1_.level__AT0| |call__SWITCH_.flby__AT0| |call__SWITCH_.level__AT0| |param_set__AT0| |call__SWITCH1_.xite2__AT0| |call__SWITCH1_.xite__AT0| |param_treset__AT0| |xite__AT0| |level1__AT0| |_OK___AT0| |level__AT0| |param_initial__AT0| |call__SWITCH_.xite__AT0| |call__SWITCH_.xite2__AT0|) _OK___AT0)))
(check-sat)
